1151.26 0
0 102 116 53 55 58 61 65 62 64 66 63 60 56 80 79 68 107 105 0
0 87 92 89 91 90 114 18 83 113 117 84 112 81 82 119 0
0 111 86 85 109 37 41 44 47 46 49 50 51 48 42 39 38 110 0
0 8 12 13 14 15 11 10 9 7 6 5 4 3 1 2 88 0
0 120 67 69 70 71 74 75 72 78 77 76 73 103 104 106 0
0 95 96 93 94 97 115 40 43 45 59 57 54 52 98 100 99 101 0
0 21 20 23 26 28 32 35 29 36 34 31 30 33 27 24 22 25 19 16 17 108 118 0
